(benchmark gametime
:status unknown
:logic QF_AUFBV
:extrafuns ((gtAGG__rtDWork  BitVec[32]))
:extrafuns ((gtINDEX48  BitVec[32]))
:extrafuns ((gtINDEX47  BitVec[32]))
:extrafuns ((gtINDEX46  BitVec[32]))
:extrafuns ((gtINDEX45  BitVec[32]))
:extrafuns ((gtINDEX44  BitVec[32]))
:extrafuns ((gtINDEX43  BitVec[32]))
:extrafuns ((gtINDEX42  BitVec[32]))
:extrafuns ((gtINDEX40  BitVec[32]))
:extrafuns ((gtFIELD__bitsForTID0__gtAGG____anonstruct_D_Work_4  Array[32:32]))
:extrafuns ((gtINDEX41  BitVec[32]))
:extrafuns ((gtINDEX38  BitVec[32]))
:extrafuns ((gtINDEX39  BitVec[32]))
:extrafuns ((gtINDEX37  BitVec[32]))
:extrafuns ((gtINDEX35  BitVec[32]))
:extrafuns ((gtINDEX36  BitVec[32]))
:extrafuns ((gtINDEX34  BitVec[32]))
:extrafuns ((gtINDEX32  BitVec[32]))
:extrafuns ((gtINDEX33  BitVec[32]))
:extrafuns ((gtINDEX30  BitVec[32]))
:extrafuns ((gtINDEX31  BitVec[32]))
:extrafuns ((gtINDEX28  BitVec[32]))
:extrafuns ((gtINDEX29  BitVec[32]))
:extrafuns ((gtINDEX26  BitVec[32]))
:extrafuns ((gtINDEX27  BitVec[32]))
:extrafuns ((gtINDEX24  BitVec[32]))
:extrafuns ((gtINDEX25  BitVec[32]))
:extrafuns ((gtINDEX22  BitVec[32]))
:extrafuns ((gtINDEX23  BitVec[32]))
:extrafuns ((gtINDEX20  BitVec[32]))
:extrafuns ((gtINDEX21  BitVec[32]))
:extrafuns ((gtINDEX19  BitVec[32]))
:extrafuns ((gtINDEX17  BitVec[32]))
:extrafuns ((gtINDEX18  BitVec[32]))
:extrafuns ((gtINDEX16  BitVec[32]))
:extrafuns ((gtINDEX14  BitVec[32]))
:extrafuns ((gtINDEX15  BitVec[32]))
:extrafuns ((gtINDEX12  BitVec[32]))
:extrafuns ((gtINDEX13  BitVec[32]))
:extrafuns ((gtINDEX11  BitVec[32]))
:extrafuns ((gtINDEX9  BitVec[32]))
:extrafuns ((gtINDEX10  BitVec[32]))
:extrafuns ((gtINDEX8  BitVec[32]))
:extrafuns ((gtINDEX7  BitVec[32]))
:extrafuns ((gtINDEX6  BitVec[32]))
:extrafuns ((gtINDEX4  BitVec[32]))
:extrafuns ((gtINDEX5  BitVec[32]))
:extrafuns ((gtINDEX2  BitVec[32]))
:extrafuns ((gtINDEX3  BitVec[32]))
:extrafuns ((gtINDEX0  BitVec[32]))
:extrafuns ((gtINDEX1  BitVec[32]))
:extrafuns ((gtFIELD__sh_rst__gtAGG____anonstruct_D_Work_4  Array[32:32]))
:extrafuns ((gtFIELD__sent__gtAGG____anonstruct_D_Work_4  Array[32:32]))
:extrafuns ((gtFIELD__is_Eng__gtAGG____anonstruct_bitsForTID0_5  Array[32:1]))
:extrafuns ((gtFIELD__is_active_Eng__gtAGG____anonstruct_bitsForTID0_5  Array[32:1]))
:extrafuns ((gtFIELD__temporalCounter_i5__gtAGG____anonstruct_D_Work_4  Array[32:32]))
:extrafuns ((gtFIELD__temporalCounter_i5__gtAGG____anonstruct_D_Work_4_1_  Array[32:32]))
:extrafuns ((gtFIELD__is_PURI__gtAGG____anonstruct_bitsForTID0_5  Array[32:2]))
:extrafuns ((gtFIELD__is_PURI__gtAGG____anonstruct_bitsForTID0_5_1_  Array[32:2]))
:extrafuns ((gtFIELD__n_t_a__gtAGG____anonstruct_D_Work_4  Array[32:32]))
:extrafuns ((gtFIELD__n_t_a__gtAGG____anonstruct_D_Work_4_1_  Array[32:32]))
:extrafuns ((sfEvent_  BitVec[32]))
:extrafuns ((gtFIELD__is_active_PURI__gtAGG____anonstruct_bitsForTID0_5  Array[32:1]))
:extrafuns ((gtFIELD__is_PVRP__gtAGG____anonstruct_bitsForTID0_5  Array[32:2]))
:extrafuns ((gtFIELD__is_PVRP__gtAGG____anonstruct_bitsForTID0_5_1_  Array[32:2]))
:extrafuns ((gtFIELD__is_active_PVRP__gtAGG____anonstruct_bitsForTID0_5  Array[32:1]))
:extrafuns ((gtFIELD__temporalCounter_i3__gtAGG____anonstruct_D_Work_4  Array[32:32]))
:extrafuns ((gtFIELD__temporalCounter_i3__gtAGG____anonstruct_D_Work_4_1_  Array[32:32]))
:extrafuns ((gtFIELD__is_PPVARP__gtAGG____anonstruct_bitsForTID0_5  Array[32:2]))
:extrafuns ((gtFIELD__is_PPVARP__gtAGG____anonstruct_bitsForTID0_5_1_  Array[32:2]))
:extrafuns ((gtFIELD__n_t_b__gtAGG____anonstruct_D_Work_4  Array[32:32]))
:extrafuns ((gtFIELD__n_t_b__gtAGG____anonstruct_D_Work_4_1_  Array[32:32]))
:extrafuns ((gtFIELD__is_active_PPVARP__gtAGG____anonstruct_bitsForTID0_5  Array[32:1]))
:extrafuns ((gtFIELD__temporalCounter_i2__gtAGG____anonstruct_D_Work_4  Array[32:32]))
:extrafuns ((gtFIELD__temporalCounter_i2__gtAGG____anonstruct_D_Work_4_1_  Array[32:32]))
:extrafuns ((gtFIELD__is_PLRI__gtAGG____anonstruct_bitsForTID0_5  Array[32:2]))
:extrafuns ((gtFIELD__is_PLRI__gtAGG____anonstruct_bitsForTID0_5_1_  Array[32:2]))
:extrafuns ((gtFIELD__n_t_n__gtAGG____anonstruct_D_Work_4  Array[32:32]))
:extrafuns ((gtFIELD__n_t_n__gtAGG____anonstruct_D_Work_4_1_  Array[32:32]))
:extrafuns ((gtFIELD__comm__gtAGG____anonstruct_D_Work_4  Array[32:32]))
:extrafuns ((gtFIELD__is_active_PLRI__gtAGG____anonstruct_bitsForTID0_5  Array[32:1]))
:extrafuns ((gtFIELD__is_active_PAVI__gtAGG____anonstruct_bitsForTID0_5  Array[32:1]))
:extrapreds ((constraint87 ))
:extrapreds ((constraint86 ))
:extrapreds ((constraint85 ))
:extrapreds ((constraint84 ))
:extrapreds ((constraint83 ))
:extrapreds ((constraint82 ))
:extrapreds ((constraint81 ))
:extrapreds ((constraint80 ))
:extrapreds ((constraint79 ))
:extrapreds ((constraint78 ))
:extrapreds ((constraint77 ))
:extrapreds ((constraint76 ))
:extrapreds ((constraint75 ))
:extrapreds ((constraint74 ))
:extrapreds ((constraint73 ))
:extrapreds ((constraint72 ))
:extrapreds ((constraint71 ))
:extrapreds ((constraint70 ))
:extrapreds ((constraint69 ))
:extrapreds ((constraint68 ))
:extrapreds ((constraint67 ))
:extrapreds ((constraint66 ))
:extrapreds ((constraint65 ))
:extrapreds ((constraint64 ))
:extrapreds ((constraint63 ))
:extrapreds ((constraint62 ))
:extrapreds ((constraint61 ))
:extrapreds ((constraint60 ))
:extrapreds ((constraint59 ))
:extrapreds ((constraint58 ))
:extrapreds ((constraint57 ))
:extrapreds ((constraint56 ))
:extrapreds ((constraint55 ))
:extrapreds ((constraint54 ))
:extrapreds ((constraint53 ))
:extrapreds ((constraint52 ))
:extrapreds ((constraint51 ))
:extrapreds ((constraint50 ))
:extrapreds ((constraint49 ))
:extrapreds ((constraint48 ))
:extrapreds ((constraint47 ))
:extrapreds ((constraint46 ))
:extrapreds ((constraint45 ))
:extrapreds ((constraint44 ))
:extrapreds ((constraint43 ))
:extrapreds ((constraint42 ))
:extrapreds ((constraint41 ))
:extrapreds ((constraint40 ))
:extrapreds ((constraint39 ))
:extrapreds ((constraint38 ))
:extrapreds ((constraint37 ))
:extrapreds ((constraint36 ))
:extrapreds ((constraint35 ))
:extrapreds ((constraint34 ))
:extrapreds ((constraint33 ))
:extrapreds ((constraint32 ))
:extrapreds ((constraint31 ))
:extrapreds ((constraint30 ))
:extrapreds ((constraint29 ))
:extrapreds ((constraint28 ))
:extrapreds ((constraint27 ))
:extrapreds ((constraint26 ))
:extrapreds ((constraint25 ))
:extrapreds ((constraint24 ))
:extrapreds ((constraint23 ))
:extrapreds ((constraint22 ))
:extrapreds ((constraint21 ))
:extrapreds ((constraint20 ))
:extrapreds ((constraint19 ))
:extrapreds ((constraint18 ))
:extrapreds ((constraint17 ))
:extrapreds ((constraint16 ))
:extrapreds ((constraint15 ))
:extrapreds ((constraint14 ))
:extrapreds ((constraint13 ))
:extrapreds ((constraint12 ))
:extrapreds ((constraint11 ))
:extrapreds ((constraint10 ))
:extrapreds ((constraint9 ))
:extrapreds ((constraint8 ))
:extrapreds ((constraint7 ))
:extrapreds ((constraint6 ))
:extrapreds ((constraint5 ))
:extrapreds ((constraint4 ))
:extrapreds ((constraint3 ))
:extrapreds ((constraint2 ))
:extrapreds ((constraint1 ))
:extrapreds ((constraint0 ))
:formula
(flet ($x460 (and constraint0 constraint1 constraint2 constraint3 constraint4 constraint5 constraint6 constraint7 constraint8 constraint9 constraint10 constraint11 constraint12 constraint13 constraint14 constraint15 constraint16 constraint17 constraint18 constraint19 constraint20 constraint21 constraint22 constraint23 constraint24 constraint25 constraint26 constraint27 constraint28 constraint29 constraint30 constraint31 constraint32 constraint33 constraint34 constraint35 constraint36 constraint37 constraint38 constraint39 constraint40 constraint41 constraint42 constraint43 constraint44 constraint45 constraint46 constraint47 constraint48 constraint49 constraint50 constraint51 constraint52 constraint53 constraint54 constraint55 constraint56 constraint57 constraint58 constraint59 constraint60 constraint61 constraint62 constraint63 constraint64 constraint65 constraint66 constraint67 constraint68 constraint69 constraint70 constraint71 constraint72 constraint73 constraint74 constraint75 constraint76 constraint77 constraint78 constraint79 constraint80 constraint81 constraint82 constraint83 constraint84 constraint85 constraint86 constraint87))
(flet ($x275 (= gtINDEX41 (select gtFIELD__bitsForTID0__gtAGG____anonstruct_D_Work_4 gtINDEX40)))
(flet ($x271 (= gtINDEX39 (select gtFIELD__bitsForTID0__gtAGG____anonstruct_D_Work_4 gtINDEX38)))
(flet ($x266 (= gtINDEX36 (select gtFIELD__bitsForTID0__gtAGG____anonstruct_D_Work_4 gtINDEX35)))
(flet ($x261 (= gtINDEX33 (select gtFIELD__bitsForTID0__gtAGG____anonstruct_D_Work_4 gtINDEX32)))
(flet ($x257 (= gtINDEX31 (select gtFIELD__bitsForTID0__gtAGG____anonstruct_D_Work_4 gtINDEX30)))
(flet ($x253 (= gtINDEX29 (select gtFIELD__bitsForTID0__gtAGG____anonstruct_D_Work_4 gtINDEX28)))
(flet ($x249 (= gtINDEX27 (select gtFIELD__bitsForTID0__gtAGG____anonstruct_D_Work_4 gtINDEX26)))
(flet ($x245 (= gtINDEX25 (select gtFIELD__bitsForTID0__gtAGG____anonstruct_D_Work_4 gtINDEX24)))
(flet ($x241 (= gtINDEX23 (select gtFIELD__bitsForTID0__gtAGG____anonstruct_D_Work_4 gtINDEX22)))
(flet ($x237 (= gtINDEX21 (select gtFIELD__bitsForTID0__gtAGG____anonstruct_D_Work_4 gtINDEX20)))
(flet ($x232 (= gtINDEX18 (select gtFIELD__bitsForTID0__gtAGG____anonstruct_D_Work_4 gtINDEX17)))
(flet ($x227 (= gtINDEX15 (select gtFIELD__bitsForTID0__gtAGG____anonstruct_D_Work_4 gtINDEX14)))
(flet ($x223 (= gtINDEX13 (select gtFIELD__bitsForTID0__gtAGG____anonstruct_D_Work_4 gtINDEX12)))
(flet ($x218 (= gtINDEX10 (select gtFIELD__bitsForTID0__gtAGG____anonstruct_D_Work_4 gtINDEX9)))
(flet ($x211 (= gtINDEX5 (select gtFIELD__bitsForTID0__gtAGG____anonstruct_D_Work_4 gtINDEX4)))
(flet ($x207 (= gtINDEX3 (select gtFIELD__bitsForTID0__gtAGG____anonstruct_D_Work_4 gtINDEX2)))
(flet ($x203 (= gtINDEX1 (select gtFIELD__bitsForTID0__gtAGG____anonstruct_D_Work_4 gtINDEX0)))
(flet ($x197 (= (select gtFIELD__sh_rst__gtAGG____anonstruct_D_Work_4 gtINDEX48) bv1[32]))
(flet ($x193 (= (select gtFIELD__sent__gtAGG____anonstruct_D_Work_4 gtINDEX47) bv3[32]))
(flet ($x189 (= (select gtFIELD__sent__gtAGG____anonstruct_D_Work_4 gtINDEX46) bv2[32]))
(flet ($x185 (= (select gtFIELD__sent__gtAGG____anonstruct_D_Work_4 gtINDEX45) bv1[32]))
(flet ($x181 (= (select gtFIELD__sent__gtAGG____anonstruct_D_Work_4 gtINDEX44) (bvmul bv4294967295[32] bv1[32])))
(flet ($x175 (= (select gtFIELD__sent__gtAGG____anonstruct_D_Work_4 gtINDEX43) bv9[32]))
(flet ($x170 (= (select gtFIELD__sent__gtAGG____anonstruct_D_Work_4 gtINDEX42) bv4[32]))
(let (?x166 (zero_extend[31] (select gtFIELD__is_Eng__gtAGG____anonstruct_bitsForTID0_5 gtINDEX41)))
(let (?x160 (select gtFIELD__is_active_Eng__gtAGG____anonstruct_bitsForTID0_5 gtINDEX39))
(let (?x157 (store gtFIELD__temporalCounter_i5__gtAGG____anonstruct_D_Work_4 gtINDEX37 bv0[32]))
(flet ($x342 (iff constraint29 (= gtFIELD__temporalCounter_i5__gtAGG____anonstruct_D_Work_4_1_ ?x157)))
(let (?x90 (extract[1:0] bv1[32]))
(let (?x154 (store gtFIELD__is_PURI__gtAGG____anonstruct_bitsForTID0_5 gtINDEX36 ?x90))
(flet ($x340 (iff constraint28 (= gtFIELD__is_PURI__gtAGG____anonstruct_bitsForTID0_5_1_ ?x154)))
(flet ($x152 (= gtFIELD__n_t_a__gtAGG____anonstruct_D_Work_4_1_ (store gtFIELD__n_t_a__gtAGG____anonstruct_D_Work_4 gtINDEX34 bv0[32])))
(let (?x147 (select gtFIELD__is_PURI__gtAGG____anonstruct_bitsForTID0_5 gtINDEX33))
(let (?x142 (select gtFIELD__is_active_PURI__gtAGG____anonstruct_bitsForTID0_5 gtINDEX31))
(let (?x139 (store gtFIELD__is_PVRP__gtAGG____anonstruct_bitsForTID0_5 gtINDEX29 (extract[1:0] bv0[32])))
(flet ($x328 (iff constraint22 (= gtFIELD__is_PVRP__gtAGG____anonstruct_bitsForTID0_5_1_ ?x139)))
(let (?x132 (select gtFIELD__is_PVRP__gtAGG____anonstruct_bitsForTID0_5 gtINDEX27))
(let (?x127 (select gtFIELD__is_PVRP__gtAGG____anonstruct_bitsForTID0_5 gtINDEX25))
(let (?x122 (select gtFIELD__is_PVRP__gtAGG____anonstruct_bitsForTID0_5 gtINDEX23))
(let (?x117 (select gtFIELD__is_active_PVRP__gtAGG____anonstruct_bitsForTID0_5 gtINDEX21))
(let (?x114 (store gtFIELD__temporalCounter_i3__gtAGG____anonstruct_D_Work_4 gtINDEX19 bv0[32]))
(flet ($x318 (iff constraint17 (= gtFIELD__temporalCounter_i3__gtAGG____anonstruct_D_Work_4_1_ ?x114)))
(let (?x111 (store gtFIELD__is_PPVARP__gtAGG____anonstruct_bitsForTID0_5 gtINDEX18 (extract[1:0] bv2[32])))
(flet ($x316 (iff constraint16 (= gtFIELD__is_PPVARP__gtAGG____anonstruct_bitsForTID0_5_1_ ?x111)))
(flet ($x107 (= gtFIELD__n_t_b__gtAGG____anonstruct_D_Work_4_1_ (store gtFIELD__n_t_b__gtAGG____anonstruct_D_Work_4 gtINDEX16 bv0[32])))
(let (?x102 (select gtFIELD__is_PPVARP__gtAGG____anonstruct_bitsForTID0_5 gtINDEX15))
(let (?x97 (select gtFIELD__is_active_PPVARP__gtAGG____anonstruct_bitsForTID0_5 gtINDEX13))
(let (?x94 (store gtFIELD__temporalCounter_i2__gtAGG____anonstruct_D_Work_4 gtINDEX11 bv0[32]))
(flet ($x304 (iff constraint10 (= gtFIELD__temporalCounter_i2__gtAGG____anonstruct_D_Work_4_1_ ?x94)))
(let (?x91 (store gtFIELD__is_PLRI__gtAGG____anonstruct_bitsForTID0_5 gtINDEX10 ?x90))
(flet ($x302 (iff constraint9 (= gtFIELD__is_PLRI__gtAGG____anonstruct_bitsForTID0_5_1_ ?x91)))
(flet ($x88 (= gtFIELD__n_t_n__gtAGG____anonstruct_D_Work_4_1_ (store gtFIELD__n_t_n__gtAGG____anonstruct_D_Work_4 gtINDEX8 bv0[32])))
(flet ($x79 (= (select gtFIELD__comm__gtAGG____anonstruct_D_Work_4 gtINDEX7) bv0[32]))
(flet ($x76 (= (select gtFIELD__sent__gtAGG____anonstruct_D_Work_4 gtINDEX6) bv0[32]))
(let (?x71 (zero_extend[30] (select gtFIELD__is_PLRI__gtAGG____anonstruct_bitsForTID0_5 gtINDEX5)))
(let (?x65 (select gtFIELD__is_active_PLRI__gtAGG____anonstruct_bitsForTID0_5 gtINDEX3))
(let (?x58 (select gtFIELD__is_active_PAVI__gtAGG____anonstruct_bitsForTID0_5 gtINDEX1))
(flet ($x459 (and (iff constraint0 (not (= sfEvent_ bv8[32]))) (iff constraint1 (not (not (= (zero_extend[31] ?x58) bv0[32])))) (iff constraint2 (not (= (zero_extend[31] ?x65) bv0[32]))) (iff constraint3 (= ?x71 bv1[32])) (iff constraint4 $x76) (iff constraint5 (not $x79)) (iff constraint6 (not (= sfEvent_ bv4[32]))) (iff constraint7 (= sfEvent_ bv5[32])) (iff constraint8 $x88) $x302 $x304 (iff constraint11 (not (= (zero_extend[31] ?x97) bv0[32]))) (iff constraint12 (= (zero_extend[30] ?x102) bv1[32])) (iff constraint13 (not (= sfEvent_ bv4[32]))) (iff constraint14 (= sfEvent_ bv5[32])) (iff constraint15 $x107) $x316 $x318 (iff constraint18 (not (= (zero_extend[31] ?x117) bv0[32]))) (iff constraint19 (not (= (zero_extend[30] ?x122) bv1[32]))) (iff constraint20 (not (= (zero_extend[30] ?x127) bv2[32]))) (iff constraint21 (not (= (zero_extend[30] ?x132) bv3[32]))) $x328 (iff constraint23 (not (= (zero_extend[31] ?x142) bv0[32]))) (iff constraint24 (= (zero_extend[30] ?x147) bv1[32])) (iff constraint25 (not (= sfEvent_ bv4[32]))) (iff constraint26 (= sfEvent_ bv5[32])) (iff constraint27 $x152) $x340 $x342 (iff constraint30 (not (= (zero_extend[31] ?x160) bv0[32]))) (iff constraint31 (= ?x166 bv1[32])) (iff constraint32 (not $x170)) (iff constraint33 (not $x175)) (iff constraint34 (not $x181)) (iff constraint35 (not $x185)) (iff constraint36 (not $x189)) (iff constraint37 (not $x193)) (iff constraint38 (not $x197)) (iff constraint39 (= gtINDEX0 gtAGG__rtDWork)) (iff constraint40 $x203) (iff constraint41 (= gtINDEX2 gtAGG__rtDWork)) (iff constraint42 $x207) (iff constraint43 (= gtINDEX4 gtAGG__rtDWork)) (iff constraint44 $x211) (iff constraint45 (= gtINDEX6 gtAGG__rtDWork)) (iff constraint46 (= gtINDEX7 gtAGG__rtDWork)) (iff constraint47 (= gtINDEX8 gtAGG__rtDWork)) (iff constraint48 (= gtINDEX9 gtAGG__rtDWork)) (iff constraint49 $x218) (iff constraint50 (= gtINDEX11 gtAGG__rtDWork)) (iff constraint51 (= gtINDEX12 gtAGG__rtDWork)) (iff constraint52 $x223) (iff constraint53 (= gtINDEX14 gtAGG__rtDWork)) (iff constraint54 $x227) (iff constraint55 (= gtINDEX16 gtAGG__rtDWork)) (iff constraint56 (= gtINDEX17 gtAGG__rtDWork)) (iff constraint57 $x232) (iff constraint58 (= gtINDEX19 gtAGG__rtDWork)) (iff constraint59 (= gtINDEX20 gtAGG__rtDWork)) (iff constraint60 $x237) (iff constraint61 (= gtINDEX22 gtAGG__rtDWork)) (iff constraint62 $x241) (iff constraint63 (= gtINDEX24 gtAGG__rtDWork)) (iff constraint64 $x245) (iff constraint65 (= gtINDEX26 gtAGG__rtDWork)) (iff constraint66 $x249) (iff constraint67 (= gtINDEX28 gtAGG__rtDWork)) (iff constraint68 $x253) (iff constraint69 (= gtINDEX30 gtAGG__rtDWork)) (iff constraint70 $x257) (iff constraint71 (= gtINDEX32 gtAGG__rtDWork)) (iff constraint72 $x261) (iff constraint73 (= gtINDEX34 gtAGG__rtDWork)) (iff constraint74 (= gtINDEX35 gtAGG__rtDWork)) (iff constraint75 $x266) (iff constraint76 (= gtINDEX37 gtAGG__rtDWork)) (iff constraint77 (= gtINDEX38 gtAGG__rtDWork)) (iff constraint78 $x271) (iff constraint79 (= gtINDEX40 gtAGG__rtDWork)) (iff constraint80 $x275) (iff constraint81 (= gtINDEX42 gtAGG__rtDWork)) (iff constraint82 (= gtINDEX43 gtAGG__rtDWork)) (iff constraint83 (= gtINDEX44 gtAGG__rtDWork)) (iff constraint84 (= gtINDEX45 gtAGG__rtDWork)) (iff constraint85 (= gtINDEX46 gtAGG__rtDWork)) (iff constraint86 (= gtINDEX47 gtAGG__rtDWork)) (iff constraint87 (= gtINDEX48 gtAGG__rtDWork))))
(and $x459 $x460))))))))))))))))))))))))))))))))))))))))))))))))))))))))))))
)
